17	4
21	20	21	20	
0	0	0	0	0	3	2	3	4	
5	5	9	3	4	3	5	17	17	
6	7	8	1	8	3	6	7	8	
2	10	10	7	5	3	8	10	13	
10	1	4	3	1	3	10	17	17	
200	3	8	3	7	3	11	13	17	
150	6	7	1	7	3	9	12	15	
75	5	8	9	1	3	17	17	17	
125	3	5	5	8	3	16	17	17	
50	2	7	1	8	2	11	17	
225	6	1	7	10	3	16	17	17	
250	1	8	6	9	3	17	17	17	
1	1	9	6	9	3	14	16	17	
2	3	9	5	4	3	15	17	17	
1	8	7	9	7	2	17	17	
6	10	7	1	3	2	17	17	
0	0	0	0	0	0	
